N = 70;
M = 152;
Edge_Start = [1, 1, 2, 3, 3, 4, 5, 6, 7, 7, 8, 9, 9, 10, 13, 13, 14, 15, 15, 16, 17, 17, 18, 19, 19, 20, 22, 23, 24, 24, 25, 26, 27, 28, 28, 29, 30, 32, 32, 33, 34, 34, 36, 37, 37, 39, 39, 41, 41, 42, 43, 44, 45, 46, 48, 48, 49, 51, 52, 52, 54, 55, 56, 56, 57, 58, 58, 60, 61, 62, 63, 64, 65, 66, 67, 68, 2, 12, 3, 4, 14, 5, 16, 7, 8, 18, 9, 10, 20, 11, 14, 25, 15, 16, 27, 17, 18, 29, 19, 20, 31, 21, 23, 35, 25, 36, 26, 27, 28, 29, 40, 30, 42, 33, 44, 34, 35, 46, 37, 38, 49, 40, 51, 42, 53, 43, 55, 45, 57, 47, 49, 60, 50, 52, 53, 64, 66, 56, 57, 68, 58, 59, 70, 61, 62, 63, 64, 65, 66, 67, 68, 69];
Edge_End = [2, 12, 3, 4, 14, 5, 16, 7, 8, 18, 9, 10, 20, 11, 14, 25, 15, 16, 27, 17, 18, 29, 19, 20, 31, 21, 23, 35, 25, 36, 26, 27, 28, 29, 40, 30, 42, 33, 44, 34, 35, 46, 37, 38, 49, 40, 51, 42, 53, 43, 55, 45, 57, 47, 49, 60, 50, 52, 53, 64, 66, 56, 57, 68, 58, 59, 70, 61, 62, 63, 64, 65, 66, 67, 68, 69, 1, 1, 2, 3, 3, 4, 5, 6, 7, 7, 8, 9, 9, 10, 13, 13, 14, 15, 15, 16, 17, 17, 18, 19, 19, 20, 22, 23, 24, 24, 25, 26, 27, 28, 28, 29, 30, 32, 32, 33, 34, 34, 36, 37, 37, 39, 39, 41, 41, 42, 43, 44, 45, 46, 48, 48, 49, 51, 52, 52, 54, 55, 56, 56, 57, 58, 58, 60, 61, 62, 63, 64, 65, 66, 67, 68];
L = [1, 1, 1, 1, 1, 1, 1, 1, 1, 1, 1, 1, 1, 1, 1, 1, 1, 1, 1, 1, 1, 1, 1, 1, 1, 1, 1, 1, 1, 1, 1, 1, 1, 1, 1, 1, 1, 1, 1, 1, 1, 1, 1, 1, 1, 1, 1, 1, 1, 1, 1, 1, 1, 1, 1, 1, 1, 1, 1, 1, 1, 1, 1, 1, 1, 1, 1, 1, 1, 1, 1, 1, 1, 1, 1, 1, 1, 1, 1, 1, 1, 1, 1, 1, 1, 1, 1, 1, 1, 1, 1, 1, 1, 1, 1, 1, 1, 1, 1, 1, 1, 1, 1, 1, 1, 1, 1, 1, 1, 1, 1, 1, 1, 1, 1, 1, 1, 1, 1, 1, 1, 1, 1, 1, 1, 1, 1, 1, 1, 1, 1, 1, 1, 1, 1, 1, 1, 1, 1, 1, 1, 1, 1, 1, 1, 1, 1, 1, 1, 1, 1, 1];
T = [1, 1, 1, 1, 1, 1, 1, 1, 1, 1, 1, 1, 1, 1, 1, 1, 1, 1, 1, 1, 1, 1, 1, 1, 1, 1, 1, 1, 1, 1, 1, 1, 1, 1, 1, 1, 1, 1, 1, 1, 1, 1, 1, 1, 1, 1, 1, 1, 1, 1, 1, 1, 1, 1, 1, 1, 1, 1, 1, 1, 1, 1, 1, 1, 1, 1, 1, 1, 1, 1, 1, 1, 1, 1, 1, 1, 1, 1, 1, 1, 1, 1, 1, 1, 1, 1, 1, 1, 1, 1, 1, 1, 1, 1, 1, 1, 1, 1, 1, 1, 1, 1, 1, 1, 1, 1, 1, 1, 1, 1, 1, 1, 1, 1, 1, 1, 1, 1, 1, 1, 1, 1, 1, 1, 1, 1, 1, 1, 1, 1, 1, 1, 1, 1, 1, 1, 1, 1, 1, 1, 1, 1, 1, 1, 1, 1, 1, 1, 1, 1, 1, 1];
Lower_Bound = [0, 1, 2, 3, 4, 9, 8, 9, 10, 11, 12, 1, 4, 3, 4, 5, 6, 7, 8, 9, 10, 21, 20, 6, 5, 6, 5, 6, 7, 8, 9, 16, 17, 18, 19, 7, 8, 9, 8, 7, 10, 9, 10, 15, 14, 19, 20, 10, 9, 10, 9, 10, 11, 14, 11, 12, 13, 14, 15, 11, 12, 13, 12, 11, 12, 13, 14, 13, 14, 15];
Upper_Bound = [0, 1, 2, 3, 4, 9, 8, 9, 10, 11, 12, 1, 4, 3, 4, 5, 6, 7, 8, 9, 10, 21, 20, 6, 5, 6, 5, 6, 7, 8, 9, 16, 17, 18, 19, 7, 8, 9, 8, 7, 10, 9, 10, 15, 14, 19, 20, 10, 9, 10, 9, 10, 11, 14, 11, 12, 13, 14, 15, 11, 12, 13, 12, 11, 12, 13, 14, 13, 14, 15];
Start = 1;
End = 70;
Time = 15;
